Welcome to the CBC MILP Solver 
Version: 2.9.8 
Build Date: Apr 18 2016 

command line - /vol/cc/opt/maxeler/maxcompiler-2020.2/bin/cbc loopKernel_schedule_C.mps.gz -threads 72 -solve -printi csv -solu loopKernel_schedule_C.csv (default strategy 1)
At line 1 NAME           CxSchedule
At line 2 ROWS
At line 2535 COLUMNS
At line 6179 RHS
At line 7446 BOUNDS
At line 9179 ENDATA
Problem CxSchedule has 2531 rows, 1732 columns and 6344 elements
Coin0008I CxSchedule read with 0 errors
threads was changed from 0 to 72
Continuous objective value is 41486 - 0.05 seconds
Cgl0003I 0 fixed, 2203 tightened bounds, 0 strengthened rows, 0 substitutions
Cgl0003I 0 fixed, 1344 tightened bounds, 0 strengthened rows, 0 substitutions
Cgl0003I 0 fixed, 1440 tightened bounds, 0 strengthened rows, 0 substitutions
Cgl0003I 0 fixed, 1422 tightened bounds, 0 strengthened rows, 0 substitutions
Cgl0003I 0 fixed, 1225 tightened bounds, 0 strengthened rows, 0 substitutions
Cgl0003I 0 fixed, 784 tightened bounds, 0 strengthened rows, 0 substitutions
Cgl0003I 0 fixed, 1176 tightened bounds, 0 strengthened rows, 0 substitutions
Cgl0003I 0 fixed, 1089 tightened bounds, 0 strengthened rows, 0 substitutions
Cgl0003I 0 fixed, 627 tightened bounds, 0 strengthened rows, 0 substitutions
Cgl0004I processed model has 2528 rows, 1729 columns (1729 integer (0 of which binary)) and 6338 elements
Cutoff increment increased from 1e-05 to 0.9999
Cbc0012I Integer solution of 41486 found by DiveCoefficient after 0 iterations and 0 nodes (0.10 seconds)
Cbc0030I Thread 0 used 0 times,  waiting to start 0.18062258, 0 cpu time, 0 locks, 0 locked, 0 waiting for locks
Cbc0030I Thread 1 used 0 times,  waiting to start 0.17856908, 0 cpu time, 0 locks, 0 locked, 0 waiting for locks
Cbc0030I Thread 2 used 0 times,  waiting to start 0.17547846, 0 cpu time, 0 locks, 0 locked, 0 waiting for locks
Cbc0030I Thread 3 used 0 times,  waiting to start 0.17322397, 0 cpu time, 0 locks, 0 locked, 0 waiting for locks
Cbc0030I Thread 4 used 0 times,  waiting to start 0.17092156, 0 cpu time, 0 locks, 0 locked, 0 waiting for locks
Cbc0030I Thread 5 used 0 times,  waiting to start 0.16863012, 0 cpu time, 0 locks, 0 locked, 0 waiting for locks
Cbc0030I Thread 6 used 0 times,  waiting to start 0.16639018, 0 cpu time, 0 locks, 0 locked, 0 waiting for locks
Cbc0030I Thread 7 used 0 times,  waiting to start 0.16414452, 0 cpu time, 0 locks, 0 locked, 0 waiting for locks
Cbc0030I Thread 8 used 0 times,  waiting to start 0.16187572, 0 cpu time, 0 locks, 0 locked, 0 waiting for locks
Cbc0030I Thread 9 used 0 times,  waiting to start 0.15962863, 0 cpu time, 0 locks, 0 locked, 0 waiting for locks
Cbc0030I Thread 10 used 0 times,  waiting to start 0.15720439, 0 cpu time, 0 locks, 0 locked, 0 waiting for locks
Cbc0030I Thread 11 used 0 times,  waiting to start 0.15469861, 0 cpu time, 0 locks, 0 locked, 0 waiting for locks
Cbc0030I Thread 12 used 0 times,  waiting to start 0.15238833, 0 cpu time, 0 locks, 0 locked, 0 waiting for locks
Cbc0030I Thread 13 used 0 times,  waiting to start 0.15011263, 0 cpu time, 0 locks, 0 locked, 0 waiting for locks
Cbc0030I Thread 14 used 0 times,  waiting to start 0.14775896, 0 cpu time, 0 locks, 0 locked, 0 waiting for locks
Cbc0030I Thread 15 used 0 times,  waiting to start 0.14554667, 0 cpu time, 0 locks, 0 locked, 0 waiting for locks
Cbc0030I Thread 16 used 0 times,  waiting to start 0.14310217, 0 cpu time, 0 locks, 0 locked, 0 waiting for locks
Cbc0030I Thread 17 used 0 times,  waiting to start 0.14075589, 0 cpu time, 0 locks, 0 locked, 0 waiting for locks
Cbc0030I Thread 18 used 0 times,  waiting to start 0.1385231, 0 cpu time, 0 locks, 0 locked, 0 waiting for locks
Cbc0030I Thread 19 used 0 times,  waiting to start 0.1362083, 0 cpu time, 0 locks, 0 locked, 0 waiting for locks
Cbc0030I Thread 20 used 0 times,  waiting to start 0.13390446, 0 cpu time, 0 locks, 0 locked, 0 waiting for locks
Cbc0030I Thread 21 used 0 times,  waiting to start 0.13159299, 0 cpu time, 0 locks, 0 locked, 0 waiting for locks
Cbc0030I Thread 22 used 0 times,  waiting to start 0.1293869, 0 cpu time, 0 locks, 0 locked, 0 waiting for locks
Cbc0030I Thread 23 used 0 times,  waiting to start 0.12698936, 0 cpu time, 0 locks, 0 locked, 0 waiting for locks
Cbc0030I Thread 24 used 0 times,  waiting to start 0.12459564, 0 cpu time, 0 locks, 0 locked, 0 waiting for locks
Cbc0030I Thread 25 used 0 times,  waiting to start 0.12196565, 0 cpu time, 0 locks, 0 locked, 0 waiting for locks
Cbc0030I Thread 26 used 0 times,  waiting to start 0.11946654, 0 cpu time, 0 locks, 0 locked, 0 waiting for locks
Cbc0030I Thread 27 used 0 times,  waiting to start 0.1169281, 0 cpu time, 0 locks, 0 locked, 0 waiting for locks
Cbc0030I Thread 28 used 0 times,  waiting to start 0.11444044, 0 cpu time, 0 locks, 0 locked, 0 waiting for locks
Cbc0030I Thread 29 used 0 times,  waiting to start 0.11200714, 0 cpu time, 0 locks, 0 locked, 0 waiting for locks
Cbc0030I Thread 30 used 0 times,  waiting to start 0.109483, 0 cpu time, 0 locks, 0 locked, 0 waiting for locks
Cbc0030I Thread 31 used 0 times,  waiting to start 0.10706282, 0 cpu time, 0 locks, 0 locked, 0 waiting for locks
Cbc0030I Thread 32 used 0 times,  waiting to start 0.10464931, 0 cpu time, 0 locks, 0 locked, 0 waiting for locks
Cbc0030I Thread 33 used 0 times,  waiting to start 0.10221744, 0 cpu time, 0 locks, 0 locked, 0 waiting for locks
Cbc0030I Thread 34 used 0 times,  waiting to start 0.099781275, 0 cpu time, 0 locks, 0 locked, 0 waiting for locks
Cbc0030I Thread 35 used 0 times,  waiting to start 0.096559525, 0 cpu time, 0 locks, 0 locked, 0 waiting for locks
Cbc0030I Thread 36 used 0 times,  waiting to start 0.094284058, 0 cpu time, 0 locks, 0 locked, 0 waiting for locks
Cbc0030I Thread 37 used 0 times,  waiting to start 0.091775656, 0 cpu time, 0 locks, 0 locked, 0 waiting for locks
Cbc0030I Thread 38 used 0 times,  waiting to start 0.08939147, 0 cpu time, 0 locks, 0 locked, 0 waiting for locks
Cbc0030I Thread 39 used 0 times,  waiting to start 0.086948156, 0 cpu time, 0 locks, 0 locked, 0 waiting for locks
Cbc0030I Thread 40 used 0 times,  waiting to start 0.084456205, 0 cpu time, 0 locks, 0 locked, 0 waiting for locks
Cbc0030I Thread 41 used 0 times,  waiting to start 0.08201766, 0 cpu time, 0 locks, 0 locked, 0 waiting for locks
Cbc0030I Thread 42 used 0 times,  waiting to start 0.079588413, 0 cpu time, 0 locks, 0 locked, 0 waiting for locks
Cbc0030I Thread 43 used 0 times,  waiting to start 0.077102661, 0 cpu time, 0 locks, 0 locked, 0 waiting for locks
Cbc0030I Thread 44 used 0 times,  waiting to start 0.0747087, 0 cpu time, 0 locks, 0 locked, 0 waiting for locks
Cbc0030I Thread 45 used 0 times,  waiting to start 0.072286367, 0 cpu time, 0 locks, 0 locked, 0 waiting for locks
Cbc0030I Thread 46 used 0 times,  waiting to start 0.069163322, 0 cpu time, 0 locks, 0 locked, 0 waiting for locks
Cbc0030I Thread 47 used 0 times,  waiting to start 0.066700697, 0 cpu time, 0 locks, 0 locked, 0 waiting for locks
Cbc0030I Thread 48 used 0 times,  waiting to start 0.06430006, 0 cpu time, 0 locks, 0 locked, 0 waiting for locks
Cbc0030I Thread 49 used 0 times,  waiting to start 0.061838627, 0 cpu time, 0 locks, 0 locked, 0 waiting for locks
Cbc0030I Thread 50 used 0 times,  waiting to start 0.059420109, 0 cpu time, 0 locks, 0 locked, 0 waiting for locks
Cbc0030I Thread 51 used 0 times,  waiting to start 0.056991816, 0 cpu time, 0 locks, 0 locked, 0 waiting for locks
Cbc0030I Thread 52 used 0 times,  waiting to start 0.054563284, 0 cpu time, 0 locks, 0 locked, 0 waiting for locks
Cbc0030I Thread 53 used 0 times,  waiting to start 0.052118778, 0 cpu time, 0 locks, 0 locked, 0 waiting for locks
Cbc0030I Thread 54 used 0 times,  waiting to start 0.049670696, 0 cpu time, 0 locks, 0 locked, 0 waiting for locks
Cbc0030I Thread 55 used 0 times,  waiting to start 0.047227621, 0 cpu time, 0 locks, 0 locked, 0 waiting for locks
Cbc0030I Thread 56 used 0 times,  waiting to start 0.044705868, 0 cpu time, 0 locks, 0 locked, 0 waiting for locks
Cbc0030I Thread 57 used 0 times,  waiting to start 0.04224062, 0 cpu time, 0 locks, 0 locked, 0 waiting for locks
Cbc0030I Thread 58 used 0 times,  waiting to start 0.039782763, 0 cpu time, 0 locks, 0 locked, 0 waiting for locks
Cbc0030I Thread 59 used 0 times,  waiting to start 0.037414551, 0 cpu time, 0 locks, 0 locked, 0 waiting for locks
Cbc0030I Thread 60 used 0 times,  waiting to start 0.034952641, 0 cpu time, 0 locks, 0 locked, 0 waiting for locks
Cbc0030I Thread 61 used 0 times,  waiting to start 0.03253603, 0 cpu time, 0 locks, 0 locked, 0 waiting for locks
Cbc0030I Thread 62 used 0 times,  waiting to start 0.03005147, 0 cpu time, 0 locks, 0 locked, 0 waiting for locks
Cbc0030I Thread 63 used 0 times,  waiting to start 0.027568579, 0 cpu time, 0 locks, 0 locked, 0 waiting for locks
Cbc0030I Thread 64 used 0 times,  waiting to start 0.025150776, 0 cpu time, 0 locks, 0 locked, 0 waiting for locks
Cbc0030I Thread 65 used 0 times,  waiting to start 0.022631168, 0 cpu time, 0 locks, 0 locked, 0 waiting for locks
Cbc0030I Thread 66 used 0 times,  waiting to start 0.020143509, 0 cpu time, 0 locks, 0 locked, 0 waiting for locks
Cbc0030I Thread 67 used 0 times,  waiting to start 0.017705441, 0 cpu time, 0 locks, 0 locked, 0 waiting for locks
Cbc0030I Thread 68 used 0 times,  waiting to start 0.015226364, 0 cpu time, 0 locks, 0 locked, 0 waiting for locks
Cbc0030I Thread 69 used 0 times,  waiting to start 0.012827158, 0 cpu time, 0 locks, 0 locked, 0 waiting for locks
Cbc0030I Thread 70 used 0 times,  waiting to start 0.010342121, 0 cpu time, 0 locks, 0 locked, 0 waiting for locks
Cbc0030I Thread 71 used 0 times,  waiting to start 0.0079345703, 0 cpu time, 0 locks, 0 locked, 0 waiting for locks
Cbc0030I Main thread 0 waiting for threads,  1 locks, 6.6757202e-06 locked, 2.3841858e-07 waiting for locks
Cbc0001I Search completed - best objective 41486, took 0 iterations and 0 nodes (0.22 seconds)
Cbc0035I Maximum depth 0, 0 variables fixed on reduced cost
Cuts at root node changed objective from 41486 to 41486
Probing was tried 0 times and created 0 cuts of which 0 were active after adding rounds of cuts (0.000 seconds)
Gomory was tried 0 times and created 0 cuts of which 0 were active after adding rounds of cuts (0.000 seconds)
Knapsack was tried 0 times and created 0 cuts of which 0 were active after adding rounds of cuts (0.000 seconds)
Clique was tried 0 times and created 0 cuts of which 0 were active after adding rounds of cuts (0.000 seconds)
MixedIntegerRounding2 was tried 0 times and created 0 cuts of which 0 were active after adding rounds of cuts (0.000 seconds)
FlowCover was tried 0 times and created 0 cuts of which 0 were active after adding rounds of cuts (0.000 seconds)
TwoMirCuts was tried 0 times and created 0 cuts of which 0 were active after adding rounds of cuts (0.000 seconds)

Result - Optimal solution found

Objective value:                41486.00000000
Enumerated nodes:               0
Total iterations:               0
Time (CPU seconds):             0.25
Time (Wallclock seconds):       0.34

Option for printingOptions changed from normal to csv
Total time (CPU seconds):       0.26   (Wallclock seconds):       0.35

